
Gurobi 6.5.2 (win64) logging started 07/23/16 02:39:01


Gurobi 6.5.2 (win64) logging started 07/23/16 02:39:01

Optimize a model with 5410 rows, 901 columns and 12573 nonzeros
Coefficient statistics:
  Matrix range    [4e-06, 1e+03]
  Objective range [1e+00, 1e+00]
  Bounds range    [1e+00, 1e+00]
  RHS range       [1e+00, 1e+03]
Found heuristic solution: objective 317.087
Presolve removed 5382 rows and 873 columns
Presolve time: 0.00s
Presolved: 28 rows, 28 columns, 85 nonzeros
Found heuristic solution: objective 210.7782335
Variable types: 28 continuous, 0 integer (0 binary)

Root relaxation: objective 1.613175e+02, 20 iterations, 0.00 seconds

    Nodes    |    Current Node    |     Objective Bounds      |     Work
 Expl Unexpl |  Obj  Depth IntInf | Incumbent    BestBd   Gap | It/Node Time

*    0     0               0     161.3174888  161.31749  0.00%     -    0s

Explored 0 nodes (20 simplex iterations) in 0.01 seconds
Thread count was 8 (of 8 available processors)

Optimal solution found (tolerance 1.00e-04)
Best objective 1.613174887720e+02, best bound 1.613174887720e+02, gap 0.0%

Wrote requested result file 'H2\instance10\\Results10EC_Sol4.lp'

